c turning on binary mode checking
c parsing input formula with 259840 variables and 1039929 clauses
c finished parsing, read 3067676 bytes from proof file
c detected empty clause; start verification via backward checking
c 3504 of 1039929 clauses in core                            
c 1061 of 129504 lemmas in core using 27176 resolution steps
c 0 RAT lemmas in core; 99 redundant literals in core lemmas
s VERIFIED
c verification time: 1.224 seconds
